c description: Tseitin formula on , with odd charge
c generator: CNFgen (0.9.0)
c copyright: (C) 2012-2020 Massimo Lauria <massimo.lauria@uniroma1.it>
c url: https://massimolauria.net/cnfgen
c
p cnf 40 317
1 2 3 0
1 -2 -3 0
-1 2 -3 0
-1 -2 3 0
4 -5 0
-4 5 0
6 7 8 9 -10 0
6 7 8 -9 10 0
6 7 -8 9 10 0
6 7 -8 -9 -10 0
6 -7 8 9 10 0
6 -7 8 -9 -10 0
6 -7 -8 9 -10 0
6 -7 -8 -9 10 0
-6 7 8 9 10 0
-6 7 8 -9 -10 0
-6 7 -8 9 -10 0
-6 7 -8 -9 10 0
-6 -7 8 9 -10 0
-6 -7 8 -9 10 0
-6 -7 -8 9 10 0
-6 -7 -8 -9 -10 0
4 11 12 13 -14 0
4 11 12 -13 14 0
4 11 -12 13 14 0
4 11 -12 -13 -14 0
4 -11 12 13 14 0
4 -11 12 -13 -14 0
4 -11 -12 13 -14 0
4 -11 -12 -13 14 0
-4 11 12 13 14 0
-4 11 12 -13 -14 0
-4 11 -12 13 -14 0
-4 11 -12 -13 14 0
-4 -11 12 13 -14 0
-4 -11 12 -13 14 0
-4 -11 -12 13 14 0
-4 -11 -12 -13 -14 0
1 11 15 16 -17 0
1 11 15 -16 17 0
1 11 -15 16 17 0
1 11 -15 -16 -17 0
1 -11 15 16 17 0
1 -11 15 -16 -17 0
1 -11 -15 16 -17 0
1 -11 -15 -16 17 0
-1 11 15 16 17 0
-1 11 15 -16 -17 0
-1 11 -15 16 -17 0
-1 11 -15 -16 17 0
-1 -11 15 16 -17 0
-1 -11 15 -16 17 0
-1 -11 -15 16 17 0
-1 -11 -15 -16 -17 0
2 6 12 18 -19 0
2 6 12 -18 19 0
2 6 -12 18 19 0
2 6 -12 -18 -19 0
2 -6 12 18 19 0
2 -6 12 -18 -19 0
2 -6 -12 18 -19 0
2 -6 -12 -18 19 0
-2 6 12 18 19 0
-2 6 12 -18 -19 0
-2 6 -12 18 -19 0
-2 6 -12 -18 19 0
-2 -6 12 18 -19 0
-2 -6 12 -18 19 0
-2 -6 -12 18 19 0
-2 -6 -12 -18 -19 0
20 -21 0
-20 21 0
15 22 23 24 -25 0
15 22 23 -24 25 0
15 22 -23 24 25 0
15 22 -23 -24 -25 0
15 -22 23 24 25 0
15 -22 23 -24 -25 0
15 -22 -23 24 -25 0
15 -22 -23 -24 25 0
-15 22 23 24 25 0
-15 22 23 -24 -25 0
-15 22 -23 24 -25 0
-15 22 -23 -24 25 0
-15 -22 23 24 -25 0
-15 -22 23 -24 25 0
-15 -22 -23 24 25 0
-15 -22 -23 -24 -25 0
16 18 -26 0
16 -18 26 0
-16 18 26 0
-16 -18 -26 0
20 22 27 28 -29 0
20 22 27 -28 29 0
20 22 -27 28 29 0
20 22 -27 -28 -29 0
20 -22 27 28 29 0
20 -22 27 -28 -29 0
20 -22 -27 28 -29 0
20 -22 -27 -28 29 0
-20 22 27 28 29 0
-20 22 27 -28 -29 0
-20 22 -27 28 -29 0
-20 22 -27 -28 29 0
-20 -22 27 28 -29 0
-20 -22 27 -28 29 0
-20 -22 -27 28 29 0
-20 -22 -27 -28 -29 0
-30 0
7 13 27 -31 0
7 13 -27 31 0
7 -13 27 31 0
7 -13 -27 -31 0
-7 13 27 31 0
-7 13 -27 -31 0
-7 -13 27 -31 0
-7 -13 -27 31 0
3 5 19 21 23 30 32 -33 0
3 5 19 21 23 30 -32 33 0
3 5 19 21 23 -30 32 33 0
3 5 19 21 23 -30 -32 -33 0
3 5 19 21 -23 30 32 33 0
3 5 19 21 -23 30 -32 -33 0
3 5 19 21 -23 -30 32 -33 0
3 5 19 21 -23 -30 -32 33 0
3 5 19 -21 23 30 32 33 0
3 5 19 -21 23 30 -32 -33 0
3 5 19 -21 23 -30 32 -33 0
3 5 19 -21 23 -30 -32 33 0
3 5 19 -21 -23 30 32 -33 0
3 5 19 -21 -23 30 -32 33 0
3 5 19 -21 -23 -30 32 33 0
3 5 19 -21 -23 -30 -32 -33 0
3 5 -19 21 23 30 32 33 0
3 5 -19 21 23 30 -32 -33 0
3 5 -19 21 23 -30 32 -33 0
3 5 -19 21 23 -30 -32 33 0
3 5 -19 21 -23 30 32 -33 0
3 5 -19 21 -23 30 -32 33 0
3 5 -19 21 -23 -30 32 33 0
3 5 -19 21 -23 -30 -32 -33 0
3 5 -19 -21 23 30 32 -33 0
3 5 -19 -21 23 30 -32 33 0
3 5 -19 -21 23 -30 32 33 0
3 5 -19 -21 23 -30 -32 -33 0
3 5 -19 -21 -23 30 32 33 0
3 5 -19 -21 -23 30 -32 -33 0
3 5 -19 -21 -23 -30 32 -33 0
3 5 -19 -21 -23 -30 -32 33 0
3 -5 19 21 23 30 32 33 0
3 -5 19 21 23 30 -32 -33 0
3 -5 19 21 23 -30 32 -33 0
3 -5 19 21 23 -30 -32 33 0
3 -5 19 21 -23 30 32 -33 0
3 -5 19 21 -23 30 -32 33 0
3 -5 19 21 -23 -30 32 33 0
3 -5 19 21 -23 -30 -32 -33 0
3 -5 19 -21 23 30 32 -33 0
3 -5 19 -21 23 30 -32 33 0
3 -5 19 -21 23 -30 32 33 0
3 -5 19 -21 23 -30 -32 -33 0
3 -5 19 -21 -23 30 32 33 0
3 -5 19 -21 -23 30 -32 -33 0
3 -5 19 -21 -23 -30 32 -33 0
3 -5 19 -21 -23 -30 -32 33 0
3 -5 -19 21 23 30 32 -33 0
3 -5 -19 21 23 30 -32 33 0
3 -5 -19 21 23 -30 32 33 0
3 -5 -19 21 23 -30 -32 -33 0
3 -5 -19 21 -23 30 32 33 0
3 -5 -19 21 -23 30 -32 -33 0
3 -5 -19 21 -23 -30 32 -33 0
3 -5 -19 21 -23 -30 -32 33 0
3 -5 -19 -21 23 30 32 33 0
3 -5 -19 -21 23 30 -32 -33 0
3 -5 -19 -21 23 -30 32 -33 0
3 -5 -19 -21 23 -30 -32 33 0
3 -5 -19 -21 -23 30 32 -33 0
3 -5 -19 -21 -23 30 -32 33 0
3 -5 -19 -21 -23 -30 32 33 0
3 -5 -19 -21 -23 -30 -32 -33 0
-3 5 19 21 23 30 32 33 0
-3 5 19 21 23 30 -32 -33 0
-3 5 19 21 23 -30 32 -33 0
-3 5 19 21 23 -30 -32 33 0
-3 5 19 21 -23 30 32 -33 0
-3 5 19 21 -23 30 -32 33 0
-3 5 19 21 -23 -30 32 33 0
-3 5 19 21 -23 -30 -32 -33 0
-3 5 19 -21 23 30 32 -33 0
-3 5 19 -21 23 30 -32 33 0
-3 5 19 -21 23 -30 32 33 0
-3 5 19 -21 23 -30 -32 -33 0
-3 5 19 -21 -23 30 32 33 0
-3 5 19 -21 -23 30 -32 -33 0
-3 5 19 -21 -23 -30 32 -33 0
-3 5 19 -21 -23 -30 -32 33 0
-3 5 -19 21 23 30 32 -33 0
-3 5 -19 21 23 30 -32 33 0
-3 5 -19 21 23 -30 32 33 0
-3 5 -19 21 23 -30 -32 -33 0
-3 5 -19 21 -23 30 32 33 0
-3 5 -19 21 -23 30 -32 -33 0
-3 5 -19 21 -23 -30 32 -33 0
-3 5 -19 21 -23 -30 -32 33 0
-3 5 -19 -21 23 30 32 33 0
-3 5 -19 -21 23 30 -32 -33 0
-3 5 -19 -21 23 -30 32 -33 0
-3 5 -19 -21 23 -30 -32 33 0
-3 5 -19 -21 -23 30 32 -33 0
-3 5 -19 -21 -23 30 -32 33 0
-3 5 -19 -21 -23 -30 32 33 0
-3 5 -19 -21 -23 -30 -32 -33 0
-3 -5 19 21 23 30 32 -33 0
-3 -5 19 21 23 30 -32 33 0
-3 -5 19 21 23 -30 32 33 0
-3 -5 19 21 23 -30 -32 -33 0
-3 -5 19 21 -23 30 32 33 0
-3 -5 19 21 -23 30 -32 -33 0
-3 -5 19 21 -23 -30 32 -33 0
-3 -5 19 21 -23 -30 -32 33 0
-3 -5 19 -21 23 30 32 33 0
-3 -5 19 -21 23 30 -32 -33 0
-3 -5 19 -21 23 -30 32 -33 0
-3 -5 19 -21 23 -30 -32 33 0
-3 -5 19 -21 -23 30 32 -33 0
-3 -5 19 -21 -23 30 -32 33 0
-3 -5 19 -21 -23 -30 32 33 0
-3 -5 19 -21 -23 -30 -32 -33 0
-3 -5 -19 21 23 30 32 33 0
-3 -5 -19 21 23 30 -32 -33 0
-3 -5 -19 21 23 -30 32 -33 0
-3 -5 -19 21 23 -30 -32 33 0
-3 -5 -19 21 -23 30 32 -33 0
-3 -5 -19 21 -23 30 -32 33 0
-3 -5 -19 21 -23 -30 32 33 0
-3 -5 -19 21 -23 -30 -32 -33 0
-3 -5 -19 -21 23 30 32 -33 0
-3 -5 -19 -21 23 30 -32 33 0
-3 -5 -19 -21 23 -30 32 33 0
-3 -5 -19 -21 23 -30 -32 -33 0
-3 -5 -19 -21 -23 30 32 33 0
-3 -5 -19 -21 -23 30 -32 -33 0
-3 -5 -19 -21 -23 -30 32 -33 0
-3 -5 -19 -21 -23 -30 -32 33 0
8 31 34 -35 0
8 31 -34 35 0
8 -31 34 35 0
8 -31 -34 -35 0
-8 31 34 35 0
-8 31 -34 -35 0
-8 -31 34 -35 0
-8 -31 -34 35 0
26 28 32 -36 0
26 28 -32 36 0
26 -28 32 36 0
26 -28 -32 -36 0
-26 28 32 36 0
-26 28 -32 -36 0
-26 -28 32 -36 0
-26 -28 -32 36 0
24 36 37 -38 0
24 36 -37 38 0
24 -36 37 38 0
24 -36 -37 -38 0
-24 36 37 38 0
-24 36 -37 -38 0
-24 -36 37 -38 0
-24 -36 -37 38 0
9 25 34 37 -39 0
9 25 34 -37 39 0
9 25 -34 37 39 0
9 25 -34 -37 -39 0
9 -25 34 37 39 0
9 -25 34 -37 -39 0
9 -25 -34 37 -39 0
9 -25 -34 -37 39 0
-9 25 34 37 39 0
-9 25 34 -37 -39 0
-9 25 -34 37 -39 0
-9 25 -34 -37 39 0
-9 -25 34 37 -39 0
-9 -25 34 -37 39 0
-9 -25 -34 37 39 0
-9 -25 -34 -37 -39 0
10 29 38 39 -40 0
10 29 38 -39 40 0
10 29 -38 39 40 0
10 29 -38 -39 -40 0
10 -29 38 39 40 0
10 -29 38 -39 -40 0
10 -29 -38 39 -40 0
10 -29 -38 -39 40 0
-10 29 38 39 40 0
-10 29 38 -39 -40 0
-10 29 -38 39 -40 0
-10 29 -38 -39 40 0
-10 -29 38 39 -40 0
-10 -29 38 -39 40 0
-10 -29 -38 39 40 0
-10 -29 -38 -39 -40 0
14 17 33 35 -40 0
14 17 33 -35 40 0
14 17 -33 35 40 0
14 17 -33 -35 -40 0
14 -17 33 35 40 0
14 -17 33 -35 -40 0
14 -17 -33 35 -40 0
14 -17 -33 -35 40 0
-14 17 33 35 40 0
-14 17 33 -35 -40 0
-14 17 -33 35 -40 0
-14 17 -33 -35 40 0
-14 -17 33 35 -40 0
-14 -17 33 -35 40 0
-14 -17 -33 35 40 0
-14 -17 -33 -35 -40 0